auto-dp/workflow/scripts/PACE2017-TrackA/4x4.gr
p tw 16 48
3 4
4 3
3 7
12 16
5 1
14 10
9 5
14 13
10 6
8 12
10 9
13 14
6 2
15 11
6 5
15 14
5 6
4 8
5 9
14 15
9 10
11 7
1 2
9 13
2 1
10 11
1 5
10 14
11 10
7 3
16 12
6 7
15 16
7 6
16 15
6 10
3 2
12 11
12 8
8 4
8 7
2 3
11 12
13 9
2 6
11 15
7 11
7 8
